O2 H4 
1.0
3.0000000000000000e+01 0.0000000000000000e+00 0.0000000000000000e+00 
0.0000000000000000e+00 1.0000000000000000e+01 0.0000000000000000e+00 
0.0000000000000000e+00 0.0000000000000000e+00 1.0000000000000000e+01 
O H 
2 4 
Cartesian
   4.6560688453    1.5710956962    1.7600000069
  -1.3460688452    1.5710956962    1.7600000069
   4.9763240153    2.5541218081    1.7439230570
   3.6541766348    1.6672783055    1.7649328353
  -1.6163091322    0.9941802422    2.5610440217
  -1.6125450540    0.9907989659    0.9607226477
