&control
  calculation='scf'
  prefix='water'
  pseudo_dir='../pseudo'
  outdir='./out'
  restart_mode='from_scratch'
  nstep=20000
  disk_io='none'
  max_seconds=10000
  tprnfor=.true.
  tstress=.true.
/
&system
  ibrav=1
  a=10
  nat=5
  ntyp=2,
  ecutwfc=110
  input_dft='PBE'
/
&electrons
  electron_maxstep = 1000
  mixing_beta = 0.5
/
&ions
/
&cell
/
ATOMIC_SPECIES
H   1.0  H.tm.pbe.UPF 
C   1.0  C.tm.pbe.UPF 
ATOMIC_POSITIONS {angstrom}
H 5.15316 4.0058 3.69558
H 3.82491 4.84827 4.51672
H 5.41769 5.65912 4.48261
H 5.1844 4.18989 5.45707
C 4.88747 4.66905 4.54192
