&control
  calculation='scf'
  prefix='water'
  pseudo_dir='../pseudo'
  outdir='./out'
  restart_mode='from_scratch'
  nstep=20000
  disk_io='none'
  max_seconds=10000
  tprnfor=.true.
  tstress=.true.
/
&system
  ibrav=1
  a=10
  nat=5
  ntyp=2,
  ecutwfc=110
  input_dft='PBE'
/
&electrons
  electron_maxstep = 1000
  mixing_beta = 0.5
/
&ions
/
&cell
/
ATOMIC_SPECIES
H   1.0  H.tm.pbe.UPF 
C   1.0  C.tm.pbe.UPF 
ATOMIC_POSITIONS {angstrom}
H 5.45177 3.97924 3.54924
H 4.06888 4.73399 4.39498
H 5.67831 5.57447 4.44271
H 5.51465 3.98538 5.32114
C 5.18982 4.55526 4.43915
