O2 H4                                   
   1.00000000000000     
    30.0000000000000000    0.0000000000000000    0.0000000000000000
     0.0000000000000000   10.0000000000000000    0.0000000000000000
     0.0000000000000000    0.0000000000000000   10.0000000000000000
   O    H 
     2     4
Direct
  0.0918689615100021  0.1571095696199976  0.1760000006900029
  0.9551310384933345  0.1571095696199976  0.1760000006900029
  0.1025441338433311  0.2554121808099978  0.1743923057000032
  0.0584725544933349  0.1667278305500020  0.1764932835300002
  0.9461230289266638  0.0994180242200002  0.2561044021700027
  0.9462484981999992  0.0990798965899984  0.0960722647700010
 
  0.00000000E+00  0.00000000E+00  0.00000000E+00
  0.00000000E+00  0.00000000E+00  0.00000000E+00
  0.00000000E+00  0.00000000E+00  0.00000000E+00
  0.00000000E+00  0.00000000E+00  0.00000000E+00
  0.00000000E+00  0.00000000E+00  0.00000000E+00
  0.00000000E+00  0.00000000E+00  0.00000000E+00
