&control
  calculation='scf'
  prefix='water'
  pseudo_dir='../pseudo'
  outdir='./out'
  restart_mode='from_scratch'
  nstep=20000
  disk_io='none'
  max_seconds=10000
  tprnfor=.true.
  tstress=.true.
/
&system
  ibrav=1
  a=10
  nat=5
  ntyp=2,
  ecutwfc=110
  input_dft='PBE'
/
&electrons
  electron_maxstep = 1000
  mixing_beta = 0.5
/
&ions
/
&cell
/
ATOMIC_SPECIES
H   1.0  H.tm.pbe.UPF 
C   1.0  C.tm.pbe.UPF 
ATOMIC_POSITIONS {angstrom}
H 5.38102 4.16609 3.61773
H 4.01447 5.00386 4.33812
H 5.55591 5.73146 4.45651
H 5.26796 4.18493 5.37146
C 5.07084 4.74941 4.4665
