&control
  calculation='scf'
  prefix='water'
  pseudo_dir='../pseudo'
  outdir='./out'
  restart_mode='from_scratch'
  nstep=20000
  disk_io='none'
  max_seconds=10000
  tprnfor=.true.
  tstress=.true.
/
&system
  ibrav=1
  a=10
  nat=5
  ntyp=2,
  ecutwfc=110
  input_dft='PBE'
/
&electrons
  electron_maxstep = 1000
  mixing_beta = 0.5
/
&ions
/
&cell
/
ATOMIC_SPECIES
H   1.0  H.tm.pbe.UPF 
C   1.0  C.tm.pbe.UPF 
ATOMIC_POSITIONS {angstrom}
H 5.39247 4.02928 3.52717
H 4.02597 4.92699 4.35983
H 5.64962 5.62677 4.19343
H 5.34637 4.25679 5.3436
C 5.1173 4.68529 4.36649
