units metal
atom_style atomic
boundary p p p
read_data data.h2o_equi
pair_style deepmd ../../frozen_model_compressed.pb
pair_coeff * *

timestep 0.0005

group gO type 1
group gH type 2

fix 1 all npt temp 300 300 0.05 iso 1.0 1.0 0.5

thermo_style custom step temp ke pe etotal press vol
thermo 100
thermo_modify format line "%d %.6e %.6e %.6e %.6e %.6e %.6e %.6e %.6e %.6e"

dump dcd all custom 100 h2o.xyz id type x y z vx vy vz
dump_modify dcd sort id

compute myRDF all rdf 100 1 1 1 2 2 2 
fix 2 all ave/time 100 1 100 c_myRDF[*] file h2o.rdf mode vector

run 100000
