 &control
    title = ' Water 16 molecules ',
    calculation = 'scf',
    restart_mode = 'from_scratch' 
    prefix = 'h2o',
    pseudo_dir='..',
    outdir='out',
 /
 &system
   ecutwfc          = 150
   nosym            = .true.
   input_dft        = 'PBE'
   ibrav            = 0
   ntyp = 2,
   nat = 48,
 /
 &electrons
   conv_thr         = 1e-07
 /
 &ions
 /
 &cell
 /

ATOMIC_SPECIES
 O  16.0   O_ONCV_PBE-1.2.upf
 H  1.00   H_ONCV_PBE-1.2.upf

CELL_PARAMETERS { angstrom }
6.071769 0.000000 0.000000 
0.000000 6.071769 0.000000 
0.000000 0.000000 6.071769 

ATOMIC_POSITIONS { angstrom }
O 0.136925 6.071575 0.078614
O 2.986345 0.009963 6.062535
O 6.046075 3.053535 0.122988
O 3.080585 3.017435 5.993125
O 6.005705 5.928405 2.858265
O 3.095995 0.098609 3.046355
O 5.929585 3.047545 3.058255
O 3.056295 2.938745 2.981525
O 1.432225 1.511065 1.621265
O 4.545935 1.457585 1.435865
O 1.588775 4.556485 1.546155
O 4.537385 4.608465 1.398245
O 1.433945 1.482205 4.505765
O 4.658195 1.416125 4.604215
O 1.644035 4.532405 4.569215
O 4.541395 4.654425 4.685455
H 0.838943 0.940021 1.011300
H 4.012635 0.806435 0.870119
H 1.003422 4.084005 0.876953
H 3.618995 3.581735 0.494655
H 0.384651 0.426822 3.463735
H 4.125635 0.692843 4.073535
H 1.139145 3.858145 4.099595
H 3.979525 3.960625 4.341175
H 0.330012 2.388005 2.553995
H 3.600675 2.440545 2.319355
H 0.599424 5.363275 2.355925
H 4.060415 5.231425 2.037975
H 0.793409 1.994135 5.038505
H 3.656835 2.321235 5.566915
H 0.568398 5.493695 5.472515
H 3.540745 5.585425 5.404675
H 4.970055 0.871400 2.044795
H 2.403955 0.571579 2.425455
H 5.055875 3.974815 2.020515
H 2.053525 3.928015 2.139065
H 5.244745 0.806372 5.161705
H 1.984305 0.966659 5.179865
H 5.467405 3.712665 5.762855
H 2.176395 3.904485 5.166425
H 1.973045 2.167725 1.004275
H 5.500585 2.327455 0.601481
H 2.476875 5.490345 0.563580
H 5.587505 5.506005 0.571274
H 2.450665 2.293825 3.442415
H 5.277365 2.573855 3.673935
H 2.521715 5.503845 3.515055
H 5.160415 4.882455 3.943085

K_POINTS { automatic }
3 3 3 0 0 0 