&inputpp 
   outdir = 'out'
   prefix = 'h2o'
   seedname = 'water'
   spin_component = 'none'
   write_mmn = .true.
   write_amn = .true.
   write_unk = .false.
/
