&control
  calculation='scf'
  prefix='water'
  pseudo_dir='../pseudo'
  outdir='./out'
  restart_mode='from_scratch'
  nstep=20000
  disk_io='none'
  max_seconds=10000
  tprnfor=.true.
  tstress=.true.
/
&system
  ibrav=1
  a=10
  nat=5
  ntyp=2,
  ecutwfc=110
  input_dft='PBE'
/
&electrons
  electron_maxstep = 1000
  mixing_beta = 0.5
/
&ions
/
&cell
/
ATOMIC_SPECIES
H   1.0  H.tm.pbe.UPF 
C   1.0  C.tm.pbe.UPF 
ATOMIC_POSITIONS {angstrom}
H 5.43912 4.2318 3.69249
H 3.97708 4.80841 4.58771
H 5.46245 5.76538 4.47319
H 5.45265 4.24808 5.44179
C 5.08978 4.75934 4.54139
